Transfer by qvasp
    1.0
    3.886030    0.000000    0.000000    
    -1.943015    3.365401    0.000000    
    0.000000    0.000000    19.292430    
  Ga    P   
  6    6  
  Direct
  0.000000  0.000000  0.435372  
  0.000000  0.000000  0.564628  
  0.666667  0.333333  0.768705  
  0.666667  0.333333  0.897961  
  0.333333  0.666667  0.102039  
  0.333333  0.666667  0.231295  
  0.666667  0.333333  0.390722  
  0.666667  0.333333  0.275944  
  0.000000  0.000000  0.057389  
  0.333333  0.666667  0.724056  
  0.000000  0.000000  0.942611  
  0.333333  0.666667  0.609278  
null
