Ga P 
 1.0000000000000000
     3.8050600000000001    0.0000000000000000    0.0000000000000000
    -1.9020580284657180    3.3195681994423776    0.0000000000000000
     0.0103017178243576    2.1733424007372166    4.6595709849585578
 Ga  P  
   1   2
Cartesian
  3.3578062075855315  0.4394034982475006  0.7748866547986082
 -0.4378816724092087  4.8251856096439338  4.1445951997009383
  1.4570188184167068  1.5464268931865253  2.0640967549169420
null
