Transfer by qvasp
    1.0
    6.735000    0.000000    0.000000    
    0.000000    6.735000    0.000000    
    0.000000    0.000000    3.929200    
  Ga    P   
  4    4  
  Direct
  0.175670  0.824330  0.000000  
  0.824330  0.175670  0.000000  
  0.675670  0.675670  0.500000  
  0.324330  0.324330  0.500000  
  0.816670  0.816670  0.000000  
  0.183330  0.183330  0.000000  
  0.683330  0.316670  0.500000  
  0.316670  0.683330  0.500000  
null
