Transfer by qvasp
    1.0
    5.451625    0.000000    0.000000    
    0.000000    5.451625    0.000000    
    0.000000    0.000000    5.451625    
  Ga    P   
  4    4  
  Direct
  0.000000  0.000000  0.000000  
  0.500000  0.500000  0.000000  
  0.500000  0.000000  0.500000  
  0.000000  0.500000  0.500000  
  0.250000  0.750000  0.750000  
  0.750000  0.750000  0.250000  
  0.750000  0.250000  0.750000  
  0.250000  0.250000  0.250000  
null
