Transfer by qvasp
    1.0
    9.262400    0.000000    0.000000    
    -4.631200    8.021474    0.000000    
    0.000000    0.000000    4.079300    
  Ga    P   
  6    6  
  Direct
  0.413270  0.077490  0.750000  
  0.922510  0.335780  0.750000  
  0.664220  0.586730  0.750000  
  0.586730  0.922510  0.250000  
  0.077490  0.664220  0.250000  
  0.335780  0.413270  0.250000  
  0.079680  0.404850  0.250000  
  0.404850  0.325170  0.750000  
  0.595150  0.674830  0.250000  
  0.674830  0.079680  0.750000  
  0.325170  0.920320  0.250000  
  0.920320  0.595150  0.750000  
null
