Ga P 
 1.0000000000000000
     3.9048300000000000    0.0000000000000000    0.0000000000000000
    -1.9540585541506843    3.3828922620962283    0.0000000000000000
    -1.9440863041589569    1.1255039689677528    9.6169428578015044
 Ga  P  
   3   3
Cartesian
  0.5870735008924115  2.0852196706283683  3.0882888599257972
 -3.3083919111912050  4.3425263110403520  9.4943268363645341
 -1.3593784437571068  3.2177567642644229  6.2954431335740209
 -1.3658332179803343  3.2133331946238259  2.2820043707277189
  0.5928637515252391  2.0896832297276955  5.4931977603762201
 -1.3561336678293170  3.2148482341780094  8.6885231943093473
null
