Ga P 
 1.0000000000000000
     4.3565800000000001    0.0000000000000000    0.0000000000000000
     6.6418695378487778    5.5222198499422737    0.0000000000000000
     6.5585213684118315    3.7263399151603847    3.9650048596146643
 Ga  P  
   3   1
Cartesian
  4.8135712723776836  2.5912460435142490  1.7212879096559182
  9.5405085760879835  4.7704320855638880  0.2398034939094949
  7.0712848736160616  3.9756205456176961  1.9921770416647919
  5.1769161020729930  0.6062577528899593  0.4743335313557023
null
